c ---- [ banner ] ------------------------------------------------------------
c
c Kissat SAT Solver
c 
c Copyright (c) 2021-2024 Armin Biere University of Freiburg
c Copyright (c) 2019-2021 Armin Biere Johannes Kepler University Linz
c 
c Version 4.0.1 43f02cf3e992cb44653b35e5cb26f93281552ae0
c gcc (Ubuntu 13.2.0-23ubuntu4) 13.2.0 -W -Wall -O3 -DNDEBUG
c Thu Sep 12 12:27:46 CEST 2024 Linux abryzen9 6.8.0-41-generic x86_64
c
c ---- [ parsing ] -----------------------------------------------------------
c
c opened and reading DIMACS file:
c
c   /data/artifact/AMulet2.0_artifact/exp4/cnf_dc2_64/64_64_U_SP_AR_CK_GenMul_dc2.cnf
c
c parsed 'p cnf 28284 124544' header
c closing input after reading 2479850 bytes (2 MB)
c finished parsing after 0.02 seconds
c
c ---- [ options ] -----------------------------------------------------------
c
c --stable=0                       (different from default '1')
c
c ---- [ solving ] -----------------------------------------------------------
c
c  seconds switched rate     size/glue tier1  binary          remaining
c         MB reductions conflicts size  tier2    irredundant
c          level restarts redundant glue  trail          variables
c
c *  0.02 10 0 0 0  0 0   0   0 0.0 0 0 0 0 0% 8653 115889 28281 100%
c (  0.05 13 0 0 0  0 0   0   0 0.0 0 0 0 0 0% 8653 115889 28281 100%
c .  0.06 13 0 0 0  0 0   0   0 0.0 0 0 0 0 0% 8649 115889 28281 100%
c f  0.28 16 0 0 0  0 0   0   0 0.0 0 0 0 0 0% 8650 115887 28282 100%
c e  0.44 26 0 0 0  0 0   0   0 0.0 0 0 0 0 0% 8523 115927 20280 72%
c )  0.44 26 0 0 0  0 0   0   0 0.0 0 0 0 0 0% 8523 115927 20280 72%
c {  0.48 26 0 0 0  0 0   0   0 0.0 0 0 2 6 0% 8523 115927 20280 72%
c -  0.70 26 263 0 1 64 15 1000 795 5.6 75 13 3 64 35% 8524 115927 20280 72%
c -  0.80 26 216 0 2 77 11 2000 1549 4.5 44 10 3 38 36% 8524 115927 20280 72%
c u  0.93 26 212 0 2 98 12 2505 1663 4.2 40 9 3 38 35% 8528 115927 20280 72%
c v  0.95 26 212 0 2 98 12 2505 1661 4.2 40 9 3 38 35% 8528 115927 20280 72%
c w  0.97 26 212 0 2 98 12 2505 1661 4.2 40 9 3 38 35% 8528 115927 20280 72%
c f  1.03 26 212 0 2 98 12 2505 1661 4.2 40 9 3 38 35% 8529 115925 20281 72%
c u  1.12 26 212 0 2 98 12 2505 1632 4.2 40 9 3 38 35% 8529 115925 20281 72%
c v  1.15 26 212 0 2 98 12 2505 1589 4.2 40 9 3 38 35% 8529 115925 20281 72%
c w  1.17 26 212 0 2 98 12 2505 1589 4.2 40 9 3 38 35% 8529 115925 20281 72%
c =  1.22 26 212 0 2 98 12 2505 1589 4.2 40 9 3 38 35% 8621 115905 20235 72%
c d  1.22 26 212 0 2 98 12 2505 1588 4.2 40 9 3 38 35% 8529 115905 20235 72%
c t  1.23 26 212 0 2 98 12 2505 1588 4.2 40 9 3 38 35% 8523 115905 20235 72%
c f  1.26 26 212 0 2 98 12 2505 1588 4.2 40 9 3 38 35% 8518 115897 20239 72%
c
c  seconds   switched   rate       size/glue tier1     binary          remaining
c         MB  reductions conflicts       size  tier2      irredundant
c           level restarts    redundant    glue    trail          variables
c
c -  1.34 26 192 0 3 114 10 3414 2032 3.8 34 9 3 18 33% 8519 115897 20239 72%
c -  1.63 26 175 0 4 242 12 5146 3139 3.3 28 9 4 17 31% 8530 115897 20239 72%
c -  1.88 26 164 0 5 296 11 7146 4217 3.0 24 8 3 16 31% 8533 115897 20239 72%
c u  1.99 26 158 0 5 343 11 7714 4502 2.9 24 8 3 16 30% 8554 115897 20239 72%
c v  2.03 26 158 0 5 343 11 7714 4429 2.9 24 8 3 16 30% 8554 115897 20239 72%
c w  2.04 26 158 0 5 343 11 7714 4428 2.9 24 8 3 16 30% 8554 115897 20239 72%
c =  2.14 26 158 0 5 343 11 7714 4428 2.9 24 8 3 16 30% 9882 115861 19574 69%
c d  2.14 26 158 0 5 343 11 7714 4409 2.9 24 8 3 16 30% 8554 115861 19574 69%
c t  2.16 26 158 0 5 343 11 7714 4409 2.9 24 8 3 16 30% 8545 115861 19574 69%
c f  2.18 26 158 0 5 343 11 7714 4409 2.9 24 8 3 16 30% 8551 115819 19595 69%
c u  2.23 26 158 0 5 343 11 7714 3922 2.9 24 8 3 16 30% 8553 115819 19595 69%
c v  2.26 26 158 0 5 343 11 7714 3824 2.9 24 8 3 16 30% 8554 115819 19595 69%
c w  2.27 26 158 0 5 343 11 7714 3824 2.9 24 8 3 16 30% 8554 115819 19595 69%
c =  2.35 26 158 0 5 343 11 7714 3824 2.9 24 8 3 16 30% 9754 115819 18995 67%
c d  2.35 26 158 0 5 343 11 7714 3824 2.9 24 8 3 16 30% 8554 115819 18995 67%
c f  2.39 26 158 0 5 343 11 7714 3824 2.9 24 8 3 16 30% 8562 115803 19003 67%
c -  2.53 26 153 0 6 411 11 9382 4483 2.7 22 8 3 15 29% 8567 115803 19003 67%
c o  2.58 26 159 0 6 415 11 10069 5161 2.7 21 8 3 15 28% 8569 115803 19003 67%
c -  2.74 26 155 0 7 488 11 11832 5876 2.7 21 8 3 13 29% 8573 115800 19003 67%
c s  2.85 26 154 0 7 508 10 12520 6529 2.7 20 7 3 13 29% 8579 106746 19003 67%
c
c  seconds   switched   rate        size/glue tier1     binary          remaining
c         MB  reductions  conflicts       size  tier2      irredundant
c           level restarts     redundant    glue    trail          variables
c
c e  2.95 26 154 0 7 508 10 12520 6529 2.7 20 7 3 13 29% 8536 106783 18966 67%
c s  2.95 26 154 0 7 508 10 12520 6529 2.7 20 7 3 13 29% 8536 106763 18966 67%
c e  2.96 26 154 0 7 508 10 12520 6529 2.7 20 7 3 13 29% 8518 106760 18949 67%
c ^  2.96 26 154 0 7 508 10 12520 6529 2.7 20 7 3 13 29% 8518 106760 18949 67%
c -  3.16 26 148 0 8 681 10 14477 7195 2.6 20 7 3 13 28% 8528 106760 18949 67%
c c  3.38 26 146 0 8 817 11 15803 8488 2.6 19 7 3 13 27% 8549 106715 18943 67%
c d  3.39 26 146 0 8 817 11 15803 8488 2.6 19 7 3 13 27% 8537 106715 18943 67%
c u  3.44 26 146 0 8 817 11 15803 8151 2.6 19 7 3 13 27% 8564 106715 18943 67%
c v  3.47 26 146 0 8 817 11 15803 7971 2.6 19 7 3 13 27% 8565 106715 18943 67%
c w  3.49 26 146 0 8 817 11 15803 7970 2.6 19 7 3 13 27% 8565 106715 18943 67%
c =  3.58 26 146 0 8 817 11 15803 7970 2.6 19 7 3 13 27% 9691 106707 18379 65%
c d  3.59 26 146 0 8 817 11 15803 7966 2.6 19 7 3 13 27% 8565 106703 18379 65%
c t  3.60 26 146 0 8 817 11 15803 7966 2.6 19 7 3 13 27% 8562 106703 18379 65%
c u  3.68 26 146 0 8 817 11 15803 7762 2.6 19 7 3 13 27% 8579 106703 18379 65%
c v  3.70 26 146 0 8 817 11 15803 7684 2.6 19 7 3 13 27% 8579 106703 18379 65%
c w  3.72 26 146 0 8 817 11 15803 7683 2.6 19 7 3 13 27% 8579 106703 18379 65%
c x  3.74 26 146 0 8 817 11 15803 7683 2.6 19 7 3 13 27% 8579 106112 18379 65%
c =  3.84 26 146 0 8 817 11 15803 7683 2.6 19 7 3 13 27% 10165 106066 17582 62%
c d  3.85 26 146 0 8 817 11 15803 7682 2.6 19 7 3 13 27% 8579 106062 17582 62%
c t  3.87 26 146 0 8 817 11 15803 7682 2.6 19 7 3 13 27% 8566 106062 17582 62%
c
c  seconds   switched   rate        size/glue tier1     binary          remaining
c         MB  reductions  conflicts       size  tier2      irredundant
c           level restarts     redundant    glue    trail          variables
c
c -  4.06 26 145 0 9 919 11 17305 7863 2.5 19 7 3 12 27% 8556 106062 17582 62%
c -  4.35 26 138 0 10 1118 11 20305 9343 2.5 18 7 3 12 27% 8573 106062 17582 62%
c o  4.36 26 138 0 10 1119 11 20425 9457 2.5 18 7 3 12 27% 8575 106062 17582 62%
c -  4.74 26 132 0 11 1372 11 23467 10148 2.5 18 7 2 11 26% 8605 106062 17582 62%
c s  4.89 26 134 0 11 1428 11 25028 11666 2.5 18 7 2 11 26% 8614 97223 17582 62%
c e  4.99 26 134 0 11 1428 11 25028 11666 2.5 18 7 2 11 26% 8547 97287 17548 62%
c s  4.99 26 134 0 11 1428 11 25028 11666 2.5 18 7 2 11 26% 8551 97268 17548 62%
c e  5.00 26 134 0 11 1428 11 25028 11666 2.5 18 7 2 11 26% 8547 97268 17544 62%
c ^  5.00 26 134 0 11 1428 11 25028 11666 2.5 18 7 2 11 26% 8547 97268 17544 62%
c -  5.18 26 132 0 12 1555 11 26783 11143 2.5 18 7 2 11 26% 8559 97268 17544 62%
c u  5.28 26 131 0 12 1583 11 26937 10385 2.5 18 7 2 11 26% 8589 97268 17544 62%
c v  5.33 26 131 0 12 1583 11 26937 9982 2.5 18 7 2 11 26% 8593 97268 17544 62%
c w  5.35 26 131 0 12 1583 11 26937 9982 2.5 18 7 2 11 26% 8593 97268 17544 62%
c =  5.49 26 131 0 12 1583 11 26937 9982 2.5 18 7 2 11 26% 11145 97208 16264 58%
c d  5.50 26 131 0 12 1583 11 26937 9900 2.5 18 7 2 11 26% 8597 97208 16264 58%
c t  5.51 26 131 0 12 1583 11 26937 9900 2.5 18 7 2 11 26% 8573 97208 16264 58%
c f  5.55 26 131 0 12 1583 11 26937 9900 2.5 18 7 2 11 26% 8584 97163 16273 58%
c u  5.61 26 131 0 12 1583 11 26937 9529 2.5 18 7 2 11 26% 8614 97163 16273 58%
c v  5.64 26 131 0 12 1583 11 26937 9410 2.5 18 7 2 11 26% 8614 97163 16273 58%
c w  5.65 26 131 0 12 1583 11 26937 9406 2.5 18 7 2 11 26% 8614 97163 16273 58%
c
c  seconds   switched     rate        size/glue tier1     binary         remaining
c         MB   reductions   conflicts       size  tier2      irredundant
c           level   restarts     redundant    glue    trail         variables
c
c x  5.69 26 131 0 12 1583 11 26937 9406 2.5 18 7 2 11 26% 8614 94406 16273 58%
c =  5.82 26 131 0 12 1583 11 26937 9406 2.5 18 7 2 11 26% 11172 94310 14987 53%
c d  5.83 26 131 0 12 1583 11 26937 9406 2.5 18 7 2 11 26% 8618 94310 14987 53%
c t  5.85 26 131 0 12 1583 11 26937 9406 2.5 18 7 2 11 26% 8591 94310 14987 53%
c -  6.19 26 130 0 13 1778 11 30248 10673 2.4 17 7 2 10 26% 8579 94310 14987 53%
c -  6.44 26 125 0 14 1996 11 33853 11923 2.4 17 7 2 10 26% 8604 94310 14987 53%
c -  6.77 26 123 0 15 2347 11 37594 13076 2.3 17 7 2 9 26% 8635 94310 14987 53%
c o  7.04 26 121 0 15 2565 11 40448 15833 2.4 17 7 2 9 27% 8656 94310 14987 53%
c c  7.17 26 120 0 15 2674 11 41264 16606 2.4 17 7 2 9 26% 8692 94195 14972 53%
c d  7.17 26 120 0 15 2674 11 41264 16600 2.4 17 7 2 9 26% 8662 94195 14972 53%
c u  7.21 26 120 0 15 2674 11 41264 16215 2.4 17 7 2 9 26% 8678 94195 14972 53%
c v  7.23 26 120 0 15 2674 11 41264 15756 2.4 17 7 2 9 26% 8682 94195 14972 53%
c w  7.25 26 120 0 15 2674 11 41264 15752 2.4 17 7 2 9 26% 8682 94195 14972 53%
c x  7.28 26 120 0 15 2674 11 41264 15752 2.4 17 7 2 9 26% 8682 89109 14972 53%
c =  7.41 26 120 0 15 2674 11 41264 15752 2.4 17 7 2 9 26% 11766 89043 13425 47%
c d  7.42 26 120 0 15 2674 11 41264 15651 2.4 17 7 2 9 26% 8682 89043 13425 47%
c t  7.43 26 120 0 15 2674 11 41264 15651 2.4 17 7 2 9 26% 8652 89043 13425 47%
c f  7.46 26 120 0 15 2674 11 41264 15651 2.4 17 7 2 9 26% 8646 89029 13427 47%
c u  7.52 26 120 0 15 2674 11 41264 14994 2.4 17 7 2 9 26% 8735 89029 13427 47%
c v  7.55 26 120 0 15 2674 11 41264 14793 2.4 17 7 2 9 26% 8734 89029 13427 47%
c
c  seconds   switched     rate         size/glue tier1    binary         remaining
c         MB   reductions   conflicts        size  tier2     irredundant
c           level   restarts      redundant    glue   trail         variables
c
c w  7.56 26 120 0 15 2674 11 41264 14793 2.4 17 7 2 9 26% 8734 89029 13427 47%
c x  7.59 26 120 0 15 2674 11 41264 14793 2.4 17 7 2 9 26% 8734 82905 13427 47%
c =  7.70 26 120 0 15 2674 11 41264 14793 2.4 17 7 2 9 26% 10956 82877 12312 44%
c d  7.71 26 120 0 15 2674 11 41264 14790 2.4 17 7 2 9 26% 8730 82877 12312 44%
c -  7.75 26 121 0 16 2685 11 41466 12909 2.4 17 7 2 9 26% 8732 82877 12312 44%
c i  7.78 26 120 0 16 2727 11 42824 13735 2.3 17 7 2 9 26% 8808 82876 12311 44%
c i  7.78 26 120 0 16 2727 11 42858 13750 2.3 17 7 2 9 26% 8811 82876 12310 44%
c i  7.78 26 120 0 16 2727 11 42893 13762 2.3 17 7 2 9 26% 8815 82876 12309 44%
c i  7.79 26 120 0 16 2727 11 42903 13764 2.3 17 7 2 9 26% 8819 82875 12308 44%
c i  7.79 26 119 0 16 2728 11 43112 13869 2.3 17 7 2 9 26% 8846 82875 12307 44%
c i  7.79 26 119 0 16 2728 11 43167 13898 2.3 17 7 2 9 26% 8854 82875 12306 44%
c i  7.79 26 119 0 16 2728 11 43205 13912 2.3 17 7 2 9 26% 8860 82875 12305 44%
c i  7.79 26 119 0 16 2728 11 43226 13918 2.3 17 7 2 9 26% 8866 82875 12302 43%
c i  7.79 26 119 0 16 2728 11 43275 13931 2.3 17 7 2 9 26% 8871 82875 12301 43%
c i  7.79 26 119 0 16 2728 11 43320 13958 2.3 17 7 2 9 26% 8873 82875 12299 43%
c i  7.79 26 119 0 16 2728 11 43340 13965 2.3 17 7 2 9 26% 8879 82875 12298 43%
c i  7.79 26 119 0 16 2728 11 43347 13965 2.3 17 7 2 9 26% 8881 82875 12297 43%
c i  7.79 26 119 0 16 2728 11 43358 13966 2.3 17 7 2 9 26% 8885 82875 12295 43%
c i  7.79 26 119 0 16 2728 11 43458 14014 2.3 17 7 2 9 26% 8891 82875 12294 43%
c i  7.80 26 119 0 16 2728 11 43600 14142 2.3 17 7 2 9 26% 8895 82875 12292 43%
c
c  seconds   switched     rate         size/glue tier1    binary         remaining
c         MB   reductions   conflicts        size  tier2     irredundant
c           level   restarts      redundant    glue   trail         variables
c
c i  7.80 26 119 0 16 2728 11 43706 14185 2.3 17 7 2 9 26% 8905 82875 12291 43%
c i  7.80 26 119 0 16 2728 11 43722 14196 2.3 17 7 2 9 26% 8907 82875 12290 43%
c i  7.81 26 119 0 16 2728 11 43773 14221 2.3 17 7 2 9 26% 8914 82875 12289 43%
c i  7.81 26 119 0 16 2728 11 43794 14217 2.3 17 7 2 9 26% 8923 82875 12288 43%
c i  7.81 26 119 0 16 2728 11 43795 14217 2.3 17 7 2 9 26% 8923 82875 12287 43%
c i  7.81 26 119 0 16 2728 11 43810 14226 2.3 17 7 2 9 26% 8926 82875 12286 43%
c i  7.81 26 119 0 16 2728 11 43816 14230 2.3 17 7 2 9 26% 8927 82875 12285 43%
c }  7.81 26 119 0 16 2728 11 43820 14230 2.3 17 7 2 9 26% 8928 82875 12281 43%
c 0  7.81 26 119 0 16 2728 11 43820 14230 2.3 17 7 2 9 26% 8928 82875 12281 43%
c
c ---- [ result ] ------------------------------------------------------------
c
s UNSATISFIABLE
c
c ---- [ profiling ] ---------------------------------------------------------
c
c           4.35   55.74 %  search
c           4.35   55.74 %  focused
c           2.98   38.16 %  simplify
c           2.91   37.26 %  probe
c           0.95   12.22 %  sweep
c           0.92   11.79 %  vivify
c           0.43    5.46 %  factor
c           0.39    5.01 %  preprocess
c           0.29    3.78 %  eliminate
c           0.28    3.59 %  substitute
c           0.23    2.92 %  congruence
c           0.16    2.03 %  fastel
c           0.10    1.34 %  reduce
c           0.06    0.81 %  lucky
c           0.06    0.77 %  transitive
c           0.06    0.72 %  subsume
c           0.04    0.52 %  backbone
c           0.02    0.27 %  parse
c =============================================
c           7.81  100.00 %  total
c
c ---- [ statistics ] --------------------------------------------------------
c
c chronological:                          400                1 %  conflicts
c conflicts:                            43820             5612.34 per second
c congruent:                               21                0 %  variables
c decisions:                           480861               10.97 per conflict
c eliminated:                            8094               29 %  variables
c factored:                                46                0 %  variables
c fast_eliminated:                       8002               99 %  eliminated
c fast_strengthened:                        2                2 %  per strengthened
c fast_subsumed:                            3                0 %  per subsumed
c iterations:                              23                0 %  variables
c propagations:                      27379000          3506621    per second
c reductions:                              16             2739    interval
c reordered:                                3            14607    interval
c restarts:                              2728               16    interval
c strengthened:                           102                0 %  checks
c substituted:                           7890               28 %  variables
c subsumed:                             17930                1 %  checks
c switched:                                 0                0    interval
c vivified:                             24324               29 %  checks
c
c ---- [ glue usage ] --------------------------------------------------------
c
c focused glue 2   used 20305 clauses 31.02% accumulated 62.30% tier1
c focused glue 3   used  6383 clauses  9.75% accumulated 72.06%
c focused glue 4-7 used 10107 clauses 15.44% accumulated 87.50%
c focused glue 8   used  1336 clauses  2.04% accumulated 89.54%
c focused glue 9   used  1148 clauses  1.75% accumulated 91.29% tier2
c
c ---- [ resources ] ---------------------------------------------------------
c
c maximum-resident-set-size:         26980352 bytes         26 MB
c process-time:                             8s               7.81 seconds
c
c ---- [ shutting down ] -----------------------------------------------------
c
c exit 20
